137
0 43 76 91 136 89 92 4 39 56 
80 46 45 101 73 86 65 8 11 85 
25 131 5 16 10 81 119 118 72 87 
116 109 90 62 58 125 64 70 113 108 
99 97 47 50 127 128 9 98 110 79 
36 35 112 57 48 38 51 59 130 61 
105 126 75 100 40 24 18 107 54 23 
83 115 68 22 82 52 41 30 124 20 
106 120 66 32 67 78 63 122 37 135 
15 123 132 44 28 12 49 53 69 17 
111 26 1 6 33 60 55 34 117 42 
14 71 31 129 103 96 2 104 134 84 
19 29 13 95 133 114 88 94 27 102 
74 93 7 121 3 77 21 
